data/processed_heuristic-threshold/instances/1/7/ds_608_courier_1756/pairwise.tsp
NAME: ds_608_courier_1756
TYPE: TSP
COMMENT: nil
DIMENSION: 8
EDGE_WEIGHT_TYPE: EXPLICIT
EDGE_WEIGHT_FORMAT: FULL_MATRIX
EDGE_WEIGHT_SECTION
9999 2204 2423 2303 1998 2010 2096 1850 
2204 9999 257 252 206 242 244 360 
2423 257 9999 161 440 499 342 576 
2303 252 161 9999 369 472 207 477 
1998 206 440 369 9999 151 219 157 
2010 242 499 472 151 9999 361 253 
2096 244 342 207 219 361 9999 282 
1850 360 576 477 157 253 282 9999 
