data/processed_heuristic-threshold/instances/1/7/ds_608_courier_1756/pairwise.sol
8
0 7 4 6 3 2 1 5 
